experiment/data/lkh-res/Vrp-Set-B-n43/Vrp-Set-B-n43-lkh/0.lkh1.vrp
NAME : 0
COMMENT : CVRP Instance
TYPE : CVRP
DIMENSION : 43
EDGE_WEIGHT_TYPE : EUC_2D
CAPACITY : 100
NODE_COORD_SECTION
1	7400	3400
2	900	2200
3	1300	2800
4	4700	6300
5	7400	4300
6	7100	1000
7	1100	6100
8	2300	3300
9	1400	2900
10	3100	3400
11	2200	2900
12	5000	6600
13	1600	3000
14	4800	7000
15	1600	0
16	1800	3300
17	2000	3400
18	2600	3600
19	4900	0
20	1900	0
21	8000	1700
22	7500	1300
23	1800	6800
24	1000	2700
25	1200	6600
26	8000	5000
27	2900	4300
28	7900	4800
29	1400	0
30	7600	5100
31	5400	6800
32	1700	3000
33	7800	5000
34	7200	1900
35	2300	3700
36	7800	4500
37	1400	3400
38	0	1500
39	1600	3100
40	2400	3700
41	8400	4700
42	8000	4400
43	2400	4100
DEMAND_SECTION
1	0
2	25
3	19
4	8
5	10
6	1
7	14
8	11
9	20
10	23
11	3
12	4
13	6
14	23
15	7
16	15
17	13
18	3
19	11
20	24
21	8
22	14
23	8
24	9
25	24
26	10
27	19
28	10
29	5
30	7
31	23
32	11
33	12
34	4
35	11
36	16
37	22
38	24
39	12
40	5
41	11
42	7
43	9
DEPOT_SECTION
1
-1
EOF
