experiment/data/lkh-res/Vrp-Set-B-n43/Vrp-Set-B-n43-lkh/0.lkh1.tour
NAME : 0.74669.tour
COMMENT : Length = 74669
COMMENT : Found by LKH-3 [Keld Helsgaun] Tue Apr  9 00:54:57 2024
TYPE : TOUR
DIMENSION : 48
TOUR_SECTION
1
5
4
12
14
23
25
7
43
44
10
18
8
16
17
35
40
27
48
32
39
13
9
3
24
37
47
31
30
33
26
28
41
42
36
45
11
2
38
29
15
20
19
6
46
34
22
21
-1
EOF
